Normalized Data/p01_2_normalized_splitx10_0.vrp
NAME:p01_2_NORMALIZED_splitx10_
BEST_KNOWN: 0
COMMENT: 0
DIMENSION: 179
CAPACITY: 1000
EDGE_WEIGHT_FORMAT: FUNCTION
EDGE_WEIGHT_TYPE: EXACT_2D
NODE_COORD_SECTION
1 0.00000 0.00000
2 8 -38
3 8 -38
4 8 -38
5 8 -38
6 8 -38
7 10 -41
8 10 -41
9 10 -41
10 10 -41
11 10 -41
12 -39 45
13 -39 45
14 -39 45
15 28 -6
16 28 -6
17 28 -6
18 -26 20
19 -26 20
20 -26 20
21 -26 20
22 -39 -36
23 -39 -36
24 10 27
25 10 27
26 10 27
27 14 16
28 14 16
29 14 16
30 14 16
31 12 20
32 12 20
33 12 20
34 12 20
35 8 -19
36 8 -19
37 8 -19
38 8 -19
39 8 -19
40 8 -19
41 40 -47
42 40 -47
43 40 -47
44 40 -47
45 -42 -36
46 -42 -36
47 -42 -36
48 24 17
49 24 17
50 -2 -23
51 -2 -23
52 -2 -23
53 -16 -2
54 -16 -2
55 40 -43
56 40 -43
57 40 -43
58 14 28
59 14 28
60 19 -25
61 19 -25
62 19 -25
63 18 -24
64 18 -24
65 18 -24
66 -47 -2
67 -47 -2
68 19 15
69 19 15
70 19 15
71 14 1
72 14 1
73 -40 40
74 -40 40
75 -40 40
76 4 -3
77 4 -3
78 4 -3
79 4 -3
80 4 -3
81 4 -3
82 23 35
83 23 35
84 23 35
85 -46 -12
86 -46 -12
87 26 -23
88 26 -23
89 26 -23
90 41 -7
91 41 -7
92 41 -7
93 41 -7
94 41 -7
95 -8 -45
96 -8 -45
97 -8 -45
98 13 -4
99 13 -4
100 13 -4
101 10 23
102 10 23
103 10 23
104 10 23
105 10 23
106 2 -43
107 2 -43
108 2 -43
109 2 -43
110 2 -43
111 -50 -24
112 -50 -24
113 -50 -24
114 -50 -24
115 -50 -24
116 -50 -24
117 33 34
118 33 34
119 35 -27
120 35 -27
121 35 -27
122 45 44
123 45 44
124 45 44
125 45 44
126 45 44
127 -35 -18
128 -35 -18
129 -35 -18
130 -47 -17
131 -47 -17
132 -47 -17
133 -47 -17
134 3 19
135 3 19
136 3 19
137 3 19
138 3 19
139 -18 39
140 -18 39
141 -18 39
142 -18 39
143 -18 39
144 40 -26
145 18 -11
146 18 -11
147 -4 13
148 -4 13
149 -4 13
150 -4 13
151 -4 13
152 -14 50
153 -14 50
154 -14 50
155 -14 50
156 -6 37
157 -6 37
158 -6 37
159 3 -39
160 3 -39
161 3 -39
162 3 -39
163 -17 32
164 -17 32
165 -17 32
166 -17 32
167 -17 32
168 0 43
169 0 43
170 0 43
171 0 43
172 -20 0
173 -20 0
174 -20 0
175 -20 0
176 -20 0
177 4 24
178 4 24
179 4 24
DEMAND_SECTION
1 0
2 100
3 50
4 10
5 10
6 10
7 200
8 50
9 10
10 10
11 10
12 200
13 200
14 100
15 100
16 50
17 10
18 200
19 10
20 10
21 10
22 200
23 50
24 200
25 100
26 10
27 100
28 10
29 10
30 10
31 200
32 100
33 10
34 10
35 200
36 200
37 50
38 10
39 10
40 10
41 100
42 10
43 10
44 10
45 100
46 50
47 10
48 200
49 10
50 100
51 50
52 10
53 200
54 200
55 200
56 10
57 10
58 200
59 200
60 200
61 50
62 10
63 200
64 10
65 10
66 100
67 50
68 200
69 100
70 10
71 200
72 100
73 200
74 50
75 10
76 200
77 100
78 50
79 10
80 10
81 10
82 200
83 200
84 10
85 200
86 200
87 200
88 100
89 50
90 200
91 200
92 10
93 10
94 10
95 200
96 50
97 10
98 200
99 200
100 50
101 200
102 200
103 50
104 10
105 10
106 200
107 10
108 10
109 10
110 10
111 200
112 100
113 10
114 10
115 10
116 10
117 200
118 50
119 200
120 50
121 10
122 200
123 50
124 10
125 10
126 10
127 100
128 10
129 10
130 200
131 200
132 50
133 10
134 200
135 200
136 10
137 10
138 10
139 200
140 10
141 10
142 10
143 10
144 200
145 200
146 100
147 100
148 50
149 10
150 10
151 10
152 200
153 200
154 50
155 10
156 200
157 200
158 50
159 200
160 100
161 50
162 10
163 200
164 100
165 50
166 10
167 10
168 200
169 10
170 10
171 10
172 200
173 100
174 10
175 10
176 10
177 100
178 50
179 10
DEPOT_SECTION
1
-1
EOF