Normalized Data/p01_2_normalized_splitx10_0.sol
178 -4 2 1 5 3 7 10 6 8 9 109 106 107 108 105 94 96 95 -12 11 13 74 72 73 18 19 20 17 -15 16 14 91 93 92 89 90 70 71 -21 22 46 45 44 111 113 112 115 110 114 130 132 -26 29 27 28 57 58 24 23 25 176 178 177 -31 32 33 30 48 47 67 68 69 -39 38 34 37 35 36 161 160 158 159 51 49 50 -41 40 42 43 56 55 54 143 118 119 120 88 87 -53 52 172 175 171 173 174 -64 63 62 60 61 59 86 145 144 -65 66 84 85 129 131 126 127 128 -76 75 77 78 79 80 99 98 97 -81 83 82 123 124 121 122 125 117 116 -102 103 100 104 101 135 137 136 133 134 -142 138 139 141 140 154 152 153 151 167 170 169 168 -150 148 149 147 146 157 156 155 163 166 162 164 165 0 





OBJ=
1423.981
BEST_KNOWN=
0.000